%mem=20gb
%nproc=16
#m062X/6-31+G(d) OPT Freq=noraman

methane.freq

0 1
C          0.00000       -0.00000       -0.00000
H          0.61776       -0.61776        0.61776
H          0.61776        0.61776       -0.61776
H         -0.61776        0.61776        0.61776
H         -0.61776       -0.61776       -0.61776


